1101,406
321,406
593,527
196,563
487,547
635,264
227,637
548,474
681,766
414,542
1137,258
804,237
839,188
576,261
709,583
681,916
570,64
575,300
792,64
681,226
296,345
704,258
417,42
1080,277
998,842
894,514
977,110
999,724
504,434
342,160
769,420
1108,623
778,336
225,258
482,470
1135,637
